127
71
110
325
46
102
0
195
75
114
81
57
37
0
161
79
65
81
85
84
108
192
85
127
105
106
135
91
94
73
43
58
40
132
75
89
112
109
131
169
82
72
160
105
459
60
113
56
148
510
91
91
100
121
46
90
185
65
122
83
95
88
441
53
137
188
86
116
141
87
55
50
243
76
100
189
0
75
369
79
155
52
112
366
53
91
104
141
127
68
82
40
0
96
157
56
95
150
42
71
